c User generated cnf file
p cnf 9 41
4 6 -2 0 
1 4 -6 0 
4 8 -5 0 
4 -2 9 0 
8 -1 9 0 
9 -3 1 0 
4 2 -5 0 
7 -3 6 0 
4 5 -6 0 
3 -1 3 0 
1 -7 7 0 
5 2 -1 0 
4 8 -7 0 
8 3 -2 0 
6 7 -8 0 
8 2 -1 0 
9 -7 3 0 
8 -3 2 0 
1 7 -7 0 
2 -8 1 0 
6 -9 7 0 
8 -8 5 0 
2 -5 5 0 
4 8 -4 0 
3 5 -1 0 
6 -8 7 0 
1 -1 5 0 
6 9 -6 0 
1 -2 5 0 
5 2 -6 0 
9 3 -2 0 
1 -7 3 0 
5 3 -8 0 
5 6 -4 0 
1 -6 7 0 
9 7 -6 0 
3 -4 4 0 
5 -7 8 0 
2 8 -6 0 
1 8 -7 0 
4 -2 1 0 
